470406
65,9,86,0,23,1,49,80,43,26,14,25,32,91,8,68,96,11,29,54,78,57,60,71,99,97,12,89,5,55,41,102,46,15,51,59,95,40,81,39,22,28,21,61,20,82,6,45,53,34,50,83,33,3,16,76,48,77,2,17,66,37,98,73,4,44,38,47,72,19,87,79,92,88,13,84,52,94,10,35,103,36,74,104,31,24,69,93,90,7,105,63,67,18,30,64,100,70,42,85,56,101,62,75,27,58
